language ESSENCE' 1.0

letting jobs = 32
letting horizon = 237
letting resourcesRenew = 2
letting resourcesNonrenew = 2
letting resourceLimits = [22, 24, 163, 155]
letting successors = [[2, 3, 4], [28], [29], [5, 8, 9], [6, 13, 24], [7, 17, 20], [11, 15], [14, 16, 19], [10, 17, 27], [12, 14, 16], [16, 18, 30], [15, 19, 24], [15, 25, 26], [20, 21], [30], [21], [21], [23, 25], [20, 22], [23, 26], [22, 31], [23], [29], [29], [27], [28, 31], [31], [30], [32], [32], [32], []]
letting durations = [[0], [1, 1, 9], [8, 9, 10], [2, 2, 7], [2, 7, 10], [1, 4, 9], [2, 2, 4], [3, 9, 10], [4, 5, 8], [2, 6, 10], [4, 5, 5], [6, 9, 10], [5, 5, 6], [5, 5, 8], [2, 4, 5], [2, 2, 8], [1, 9, 10], [4, 6, 6], [1, 4, 10], [1, 4, 5], [1, 6, 8], [1, 4, 8], [7, 7, 9], [3, 3, 9], [1, 3, 3], [6, 9, 10], [1, 2, 6], [1, 2, 9], [2, 6, 7], [2, 8, 9], [2, 5, 9], [0]]
letting resourceUsage = [[[0, 0, 0, 0]], [[0, 2, 8, 9], [0, 3, 7, 9], [8, 0, 6, 7]], [[1, 0, 3, 5], [0, 7, 3, 3], [0, 5, 2, 1]], [[0, 10, 6, 8], [9, 0, 8, 7], [0, 10, 6, 6]], [[0, 1, 2, 8], [9, 0, 2, 7], [0, 1, 2, 7]], [[7, 0, 5, 9], [0, 7, 5, 9], [5, 0, 1, 8]], [[8, 0, 3, 7], [0, 4, 3, 7], [8, 0, 3, 6]], [[5, 0, 9, 8], [0, 6, 8, 7], [0, 5, 6, 5]], [[8, 0, 7, 4], [0, 2, 6, 2], [6, 0, 3, 1]], [[0, 6, 1, 7], [0, 6, 1, 6], [0, 5, 1, 4]], [[7, 0, 5, 8], [7, 0, 4, 7], [5, 0, 5, 8]], [[6, 0, 6, 10], [5, 0, 5, 9], [4, 0, 2, 9]], [[8, 0, 9, 6], [7, 0, 10, 6], [0, 10, 9, 1]], [[0, 4, 10, 6], [7, 0, 10, 8], [4, 0, 8, 2]], [[4, 0, 7, 8], [0, 4, 6, 4], [0, 3, 4, 3]], [[9, 0, 6, 9], [0, 5, 6, 10], [9, 0, 5, 9]], [[9, 0, 8, 4], [0, 8, 6, 3], [0, 8, 4, 3]], [[5, 0, 4, 5], [0, 5, 2, 5], [3, 0, 3, 4]], [[4, 0, 8, 9], [4, 0, 7, 8], [0, 4, 7, 8]], [[10, 0, 4, 4], [0, 6, 4, 4], [6, 0, 3, 3]], [[4, 0, 8, 4], [3, 0, 7, 2], [3, 0, 3, 1]], [[0, 7, 6, 3], [0, 5, 5, 2], [0, 2, 2, 2]], [[5, 0, 9, 5], [0, 10, 9, 5], [5, 0, 9, 3]], [[1, 0, 10, 6], [2, 0, 10, 5], [0, 9, 10, 4]], [[6, 0, 10, 10], [0, 4, 10, 5], [0, 2, 10, 6]], [[3, 0, 9, 6], [0, 9, 9, 3], [0, 9, 9, 2]], [[6, 0, 9, 9], [0, 7, 6, 8], [2, 0, 5, 6]], [[4, 0, 10, 7], [4, 0, 10, 4], [0, 2, 10, 3]], [[0, 5, 6, 8], [9, 0, 6, 8], [6, 0, 6, 8]], [[0, 7, 10, 7], [0, 7, 5, 6], [0, 6, 4, 4]], [[0, 8, 8, 10], [0, 8, 4, 5], [2, 0, 1, 4]], [[0, 0, 0, 0]]]
